0  1167  1579   437  3575  1453   226  2976  1107  1006
1046   891
1167     0   413  1422  2895   316  1172  3094   140   382
189   530
1579   413     0  1832  2766   167  1585  3265   508   677
547   842
437  1422  1832     0  3437  1732   272  2607  1327  1355
1345  1269
3575  2895  2766  3437     0  2911  3397  2028  2821  3277
3079  3411
1453   316   167  1732  2911     0  1477  3318   441   516
408   680
226  1172  1585   272  3397  1477     0  2749  1087  1084
1082   997
2976  3094  3265  2607  2028  3318  2749     0  2958  3359
3198  3402
1107   140   508  1327  2821   441  1087  2958     0   465
268   589
1006   382   677  1355  3277   516  1084  3359   465     0
198   165
1046   189   547  1345  3079   408  1082  3198   268   198
 0   341
891   530   842  1269  3411   680   997  3402   589   165
341     0